NAME: kroA150-15
TYPE: TSP
COMMENT: First 15 of 150-city problem A (Krolak/Felts/Nelson)
DIMENSION: 15
EDGE_WEIGHT_TYPE : EUC_2D
NODE_COORD_SECTION
1 1380 939
2 2848 96
3 3510 1671
4 457 334
5 3888 666
6 984 965
7 2721 1482
8 1286 525
9 2716 1432
10 738 1325
11 1251 1832
12 2728 1698
13 3815 169
14 3683 1533
15 1247 1945
NODE_SCORE_SECTION
1 0
2 63
3 83
4 41
5 93
6 15
7 54
8 16
9 53
10 28
11 34
12 57
13 94
14 88
15 38
DEPOT_SECTION
2
-1
EOF
